(set-logic QF_S)
(declare-fun var0 () String)
(assert (RegexIn var0 (RegexConcat (RegexStar (RegexUnion (Str2Reg "000") (Str2Reg "11"))) (RegexConcat (RegexPlus (RegexUnion (Str2Reg "222") (Str2Reg "33"))) (RegexConcat (RegexUnion (RegexUnion (Str2Reg "4") (Str2Reg "55")) (RegexUnion (Str2Reg "666") (Str2Reg "7"))) (RegexConcat (RegexStar (RegexPlus (Str2Reg "88"))) (RegexConcat (RegexStar (RegexUnion (Str2Reg "999") (Str2Reg "aa"))) (RegexConcat (RegexPlus (RegexStar (Str2Reg "bbb"))) (RegexConcat (RegexPlus (RegexStar (Str2Reg "cc"))) (RegexConcat (RegexUnion (RegexUnion (Str2Reg "dd") (Str2Reg "ee")) (RegexUnion (Str2Reg "f") (Str2Reg "gg"))) (RegexConcat (RegexUnion (RegexUnion (Str2Reg "h") (Str2Reg "ii")) (RegexUnion (Str2Reg "jjj") (Str2Reg "kk"))) (RegexStar (RegexUnion (Str2Reg "lll") (Str2Reg "mm"))))))))))))))
(assert (RegexIn var0 (RegexConcat (RegexPlus (RegexStar (Str2Reg "0"))) (RegexConcat (RegexPlus (RegexUnion (Str2Reg "111") (Str2Reg "222"))) (RegexConcat (RegexPlus (RegexStar (Str2Reg "333"))) (RegexConcat (RegexUnion (RegexUnion (Str2Reg "44") (Str2Reg "55")) (RegexUnion (Str2Reg "66") (Str2Reg "77"))) (RegexConcat (RegexPlus (RegexUnion (Str2Reg "88") (Str2Reg "99"))) (RegexConcat (RegexUnion (RegexStar (Str2Reg "a")) (RegexStar (Str2Reg "bbb"))) (RegexConcat (RegexPlus (RegexStar (Str2Reg "ccc"))) (RegexConcat (RegexPlus (RegexUnion (Str2Reg "d") (Str2Reg "eee"))) (RegexConcat (RegexStar (RegexUnion (Str2Reg "f") (Str2Reg "ggg"))) (RegexPlus (RegexUnion (Str2Reg "hh") (Str2Reg "i"))))))))))))))
(assert (RegexIn var0 (RegexConcat (RegexPlus (RegexUnion (Str2Reg "00") (Str2Reg "1"))) (RegexConcat (RegexUnion (RegexStar (Str2Reg "222")) (RegexStar (Str2Reg "333"))) (RegexConcat (RegexStar (RegexPlus (Str2Reg "44"))) (RegexConcat (RegexStar (RegexPlus (Str2Reg "5"))) (RegexConcat (RegexUnion (RegexPlus (Str2Reg "6")) (RegexPlus (Str2Reg "77"))) (RegexConcat (RegexStar (RegexPlus (Str2Reg "88"))) (RegexConcat (RegexPlus (RegexUnion (Str2Reg "9") (Str2Reg "aa"))) (RegexConcat (RegexStar (RegexStar (Str2Reg "b"))) (RegexConcat (RegexStar (RegexStar (Str2Reg "ccc"))) (RegexUnion (RegexStar (Str2Reg "d")) (RegexStar (Str2Reg "e"))))))))))))))
(assert (RegexIn var0 (RegexConcat (RegexStar (RegexStar (Str2Reg "00"))) (RegexConcat (RegexUnion (RegexPlus (Str2Reg "11")) (RegexPlus (Str2Reg "222"))) (RegexConcat (RegexStar (RegexStar (Str2Reg "333"))) (RegexConcat (RegexUnion (RegexUnion (Str2Reg "4") (Str2Reg "555")) (RegexUnion (Str2Reg "66") (Str2Reg "777"))) (RegexConcat (RegexUnion (RegexPlus (Str2Reg "88")) (RegexPlus (Str2Reg "99"))) (RegexConcat (RegexUnion (RegexStar (Str2Reg "aa")) (RegexStar (Str2Reg "bbb"))) (RegexConcat (RegexPlus (RegexPlus (Str2Reg "c"))) (RegexConcat (RegexPlus (RegexStar (Str2Reg "ddd"))) (RegexConcat (RegexStar (RegexPlus (Str2Reg "e"))) (RegexStar (RegexPlus (Str2Reg "fff"))))))))))))))
(assert (RegexIn var0 (RegexConcat (RegexPlus (RegexPlus (Str2Reg "00"))) (RegexConcat (RegexUnion (RegexPlus (Str2Reg "11")) (RegexPlus (Str2Reg "2"))) (RegexConcat (RegexPlus (RegexStar (Str2Reg "333"))) (RegexConcat (RegexUnion (RegexPlus (Str2Reg "444")) (RegexPlus (Str2Reg "5"))) (RegexConcat (RegexStar (RegexPlus (Str2Reg "66"))) (RegexConcat (RegexStar (RegexUnion (Str2Reg "77") (Str2Reg "88"))) (RegexConcat (RegexStar (RegexPlus (Str2Reg "999"))) (RegexConcat (RegexUnion (RegexStar (Str2Reg "aa")) (RegexStar (Str2Reg "b"))) (RegexConcat (RegexUnion (RegexUnion (Str2Reg "c") (Str2Reg "ddd")) (RegexUnion (Str2Reg "e") (Str2Reg "fff"))) (RegexStar (RegexUnion (Str2Reg "gg") (Str2Reg "h"))))))))))))))
(assert (RegexIn var0 (RegexConcat (RegexStar (RegexPlus (Str2Reg "00"))) (RegexConcat (RegexPlus (RegexStar (Str2Reg "111"))) (RegexConcat (RegexStar (RegexStar (Str2Reg "2"))) (RegexConcat (RegexStar (RegexUnion (Str2Reg "33") (Str2Reg "4"))) (RegexConcat (RegexStar (RegexUnion (Str2Reg "55") (Str2Reg "6"))) (RegexConcat (RegexPlus (RegexStar (Str2Reg "777"))) (RegexConcat (RegexStar (RegexUnion (Str2Reg "88") (Str2Reg "9"))) (RegexConcat (RegexUnion (RegexUnion (Str2Reg "aaa") (Str2Reg "b")) (RegexUnion (Str2Reg "cc") (Str2Reg "ddd"))) (RegexConcat (RegexUnion (RegexStar (Str2Reg "e")) (RegexStar (Str2Reg "f"))) (RegexUnion (RegexStar (Str2Reg "g")) (RegexStar (Str2Reg "hh"))))))))))))))
(assert (RegexIn var0 (RegexConcat (RegexPlus (RegexStar (Str2Reg "0"))) (RegexConcat (RegexStar (RegexStar (Str2Reg "111"))) (RegexConcat (RegexPlus (RegexStar (Str2Reg "222"))) (RegexConcat (RegexStar (RegexStar (Str2Reg "3"))) (RegexConcat (RegexUnion (RegexStar (Str2Reg "44")) (RegexStar (Str2Reg "5"))) (RegexConcat (RegexUnion (RegexStar (Str2Reg "66")) (RegexStar (Str2Reg "777"))) (RegexConcat (RegexUnion (RegexUnion (Str2Reg "8") (Str2Reg "99")) (RegexUnion (Str2Reg "aa") (Str2Reg "bbb"))) (RegexConcat (RegexPlus (RegexUnion (Str2Reg "cc") (Str2Reg "ddd"))) (RegexConcat (RegexStar (RegexStar (Str2Reg "ee"))) (RegexPlus (RegexPlus (Str2Reg "fff"))))))))))))))
(assert (RegexIn var0 (RegexConcat (RegexStar (RegexPlus (Str2Reg "000"))) (RegexConcat (RegexStar (RegexStar (Str2Reg "111"))) (RegexConcat (RegexPlus (RegexPlus (Str2Reg "222"))) (RegexConcat (RegexPlus (RegexStar (Str2Reg "3"))) (RegexConcat (RegexStar (RegexUnion (Str2Reg "444") (Str2Reg "55"))) (RegexConcat (RegexUnion (RegexPlus (Str2Reg "666")) (RegexPlus (Str2Reg "7"))) (RegexConcat (RegexPlus (RegexStar (Str2Reg "8"))) (RegexConcat (RegexPlus (RegexUnion (Str2Reg "99") (Str2Reg "aa"))) (RegexConcat (RegexUnion (RegexPlus (Str2Reg "b")) (RegexPlus (Str2Reg "cc"))) (RegexStar (RegexStar (Str2Reg "dd"))))))))))))))
(assert (RegexIn var0 (RegexConcat (RegexStar (RegexStar (Str2Reg "000"))) (RegexConcat (RegexStar (RegexUnion (Str2Reg "11") (Str2Reg "22"))) (RegexConcat (RegexPlus (RegexPlus (Str2Reg "333"))) (RegexConcat (RegexUnion (RegexUnion (Str2Reg "444") (Str2Reg "5")) (RegexUnion (Str2Reg "66") (Str2Reg "777"))) (RegexConcat (RegexPlus (RegexUnion (Str2Reg "888") (Str2Reg "99"))) (RegexConcat (RegexStar (RegexUnion (Str2Reg "a") (Str2Reg "bbb"))) (RegexConcat (RegexUnion (RegexUnion (Str2Reg "ccc") (Str2Reg "dd")) (RegexUnion (Str2Reg "eee") (Str2Reg "f"))) (RegexConcat (RegexUnion (RegexPlus (Str2Reg "ggg")) (RegexPlus (Str2Reg "hh"))) (RegexConcat (RegexStar (RegexStar (Str2Reg "i"))) (RegexUnion (RegexUnion (Str2Reg "jjj") (Str2Reg "kkk")) (RegexUnion (Str2Reg "lll") (Str2Reg "m"))))))))))))))
(assert (RegexIn var0 (RegexConcat (RegexPlus (RegexPlus (Str2Reg "00"))) (RegexConcat (RegexUnion (RegexUnion (Str2Reg "111") (Str2Reg "22")) (RegexUnion (Str2Reg "33") (Str2Reg "444"))) (RegexConcat (RegexUnion (RegexPlus (Str2Reg "55")) (RegexPlus (Str2Reg "6"))) (RegexConcat (RegexStar (RegexPlus (Str2Reg "777"))) (RegexConcat (RegexStar (RegexUnion (Str2Reg "8") (Str2Reg "9"))) (RegexConcat (RegexStar (RegexStar (Str2Reg "aa"))) (RegexConcat (RegexUnion (RegexPlus (Str2Reg "bb")) (RegexPlus (Str2Reg "ccc"))) (RegexConcat (RegexStar (RegexPlus (Str2Reg "dd"))) (RegexConcat (RegexUnion (RegexUnion (Str2Reg "eee") (Str2Reg "fff")) (RegexUnion (Str2Reg "g") (Str2Reg "h"))) (RegexUnion (RegexPlus (Str2Reg "ii")) (RegexPlus (Str2Reg "jjj"))))))))))))))
(assert (RegexIn var0 (RegexConcat (RegexPlus (RegexPlus (Str2Reg "000"))) (RegexConcat (RegexStar (RegexUnion (Str2Reg "11") (Str2Reg "222"))) (RegexConcat (RegexUnion (RegexUnion (Str2Reg "3") (Str2Reg "444")) (RegexUnion (Str2Reg "55") (Str2Reg "666"))) (RegexConcat (RegexPlus (RegexStar (Str2Reg "77"))) (RegexConcat (RegexUnion (RegexStar (Str2Reg "88")) (RegexStar (Str2Reg "99"))) (RegexConcat (RegexUnion (RegexStar (Str2Reg "aaa")) (RegexStar (Str2Reg "bbb"))) (RegexConcat (RegexStar (RegexStar (Str2Reg "ccc"))) (RegexConcat (RegexPlus (RegexStar (Str2Reg "ddd"))) (RegexConcat (RegexUnion (RegexUnion (Str2Reg "eee") (Str2Reg "f")) (RegexUnion (Str2Reg "ggg") (Str2Reg "h"))) (RegexUnion (RegexPlus (Str2Reg "iii")) (RegexPlus (Str2Reg "jj"))))))))))))))
(assert (RegexIn var0 (RegexConcat (RegexPlus (RegexStar (Str2Reg "000"))) (RegexConcat (RegexPlus (RegexStar (Str2Reg "1"))) (RegexConcat (RegexUnion (RegexStar (Str2Reg "22")) (RegexStar (Str2Reg "333"))) (RegexConcat (RegexStar (RegexUnion (Str2Reg "444") (Str2Reg "55"))) (RegexConcat (RegexStar (RegexStar (Str2Reg "66"))) (RegexConcat (RegexPlus (RegexStar (Str2Reg "777"))) (RegexConcat (RegexUnion (RegexUnion (Str2Reg "8") (Str2Reg "9")) (RegexUnion (Str2Reg "aaa") (Str2Reg "b"))) (RegexConcat (RegexUnion (RegexPlus (Str2Reg "ccc")) (RegexPlus (Str2Reg "ddd"))) (RegexConcat (RegexPlus (RegexStar (Str2Reg "ee"))) (RegexStar (RegexStar (Str2Reg "ff"))))))))))))))
(assert (RegexIn var0 (RegexConcat (RegexPlus (RegexStar (Str2Reg "0"))) (RegexConcat (RegexPlus (RegexUnion (Str2Reg "11") (Str2Reg "22"))) (RegexConcat (RegexUnion (RegexStar (Str2Reg "3")) (RegexStar (Str2Reg "444"))) (RegexConcat (RegexStar (RegexUnion (Str2Reg "555") (Str2Reg "66"))) (RegexConcat (RegexStar (RegexPlus (Str2Reg "7"))) (RegexConcat (RegexStar (RegexUnion (Str2Reg "888") (Str2Reg "99"))) (RegexConcat (RegexPlus (RegexStar (Str2Reg "a"))) (RegexConcat (RegexStar (RegexUnion (Str2Reg "bbb") (Str2Reg "cc"))) (RegexConcat (RegexStar (RegexPlus (Str2Reg "d"))) (RegexUnion (RegexStar (Str2Reg "eee")) (RegexStar (Str2Reg "fff"))))))))))))))
(assert (RegexIn var0 (RegexConcat (RegexUnion (RegexStar (Str2Reg "00")) (RegexStar (Str2Reg "1"))) (RegexConcat (RegexStar (RegexPlus (Str2Reg "2"))) (RegexConcat (RegexStar (RegexPlus (Str2Reg "3"))) (RegexConcat (RegexUnion (RegexUnion (Str2Reg "44") (Str2Reg "5")) (RegexUnion (Str2Reg "666") (Str2Reg "777"))) (RegexConcat (RegexPlus (RegexStar (Str2Reg "8"))) (RegexConcat (RegexPlus (RegexStar (Str2Reg "99"))) (RegexConcat (RegexUnion (RegexPlus (Str2Reg "aaa")) (RegexPlus (Str2Reg "bbb"))) (RegexConcat (RegexStar (RegexStar (Str2Reg "c"))) (RegexConcat (RegexStar (RegexPlus (Str2Reg "dd"))) (RegexUnion (RegexStar (Str2Reg "eee")) (RegexStar (Str2Reg "f"))))))))))))))
(assert (RegexIn var0 (RegexConcat (RegexPlus (RegexStar (Str2Reg "000"))) (RegexConcat (RegexStar (RegexStar (Str2Reg "1"))) (RegexConcat (RegexPlus (RegexStar (Str2Reg "22"))) (RegexConcat (RegexStar (RegexPlus (Str2Reg "333"))) (RegexConcat (RegexPlus (RegexUnion (Str2Reg "44") (Str2Reg "5"))) (RegexConcat (RegexPlus (RegexUnion (Str2Reg "666") (Str2Reg "7"))) (RegexConcat (RegexStar (RegexUnion (Str2Reg "888") (Str2Reg "99"))) (RegexConcat (RegexPlus (RegexPlus (Str2Reg "a"))) (RegexConcat (RegexStar (RegexStar (Str2Reg "b"))) (RegexPlus (RegexStar (Str2Reg "ccc"))))))))))))))
(assert (RegexIn var0 (RegexConcat (RegexStar (RegexPlus (Str2Reg "00"))) (RegexConcat (RegexPlus (RegexPlus (Str2Reg "11"))) (RegexConcat (RegexStar (RegexPlus (Str2Reg "2"))) (RegexConcat (RegexStar (RegexUnion (Str2Reg "333") (Str2Reg "444"))) (RegexConcat (RegexUnion (RegexPlus (Str2Reg "55")) (RegexPlus (Str2Reg "66"))) (RegexConcat (RegexStar (RegexPlus (Str2Reg "777"))) (RegexConcat (RegexStar (RegexPlus (Str2Reg "88"))) (RegexConcat (RegexUnion (RegexUnion (Str2Reg "999") (Str2Reg "aa")) (RegexUnion (Str2Reg "bb") (Str2Reg "cc"))) (RegexConcat (RegexPlus (RegexStar (Str2Reg "d"))) (RegexStar (RegexStar (Str2Reg "ee"))))))))))))))
(assert (RegexIn var0 (RegexConcat (RegexStar (RegexStar (Str2Reg "00"))) (RegexConcat (RegexPlus (RegexStar (Str2Reg "111"))) (RegexConcat (RegexStar (RegexStar (Str2Reg "222"))) (RegexConcat (RegexUnion (RegexStar (Str2Reg "333")) (RegexStar (Str2Reg "4"))) (RegexConcat (RegexUnion (RegexStar (Str2Reg "5")) (RegexStar (Str2Reg "666"))) (RegexConcat (RegexUnion (RegexPlus (Str2Reg "77")) (RegexPlus (Str2Reg "88"))) (RegexConcat (RegexStar (RegexUnion (Str2Reg "99") (Str2Reg "a"))) (RegexConcat (RegexStar (RegexPlus (Str2Reg "bb"))) (RegexConcat (RegexPlus (RegexPlus (Str2Reg "cc"))) (RegexPlus (RegexUnion (Str2Reg "dd") (Str2Reg "e"))))))))))))))
(assert (RegexIn var0 (RegexConcat (RegexStar (RegexUnion (Str2Reg "00") (Str2Reg "11"))) (RegexConcat (RegexPlus (RegexPlus (Str2Reg "222"))) (RegexConcat (RegexStar (RegexUnion (Str2Reg "3") (Str2Reg "44"))) (RegexConcat (RegexUnion (RegexPlus (Str2Reg "55")) (RegexPlus (Str2Reg "66"))) (RegexConcat (RegexUnion (RegexUnion (Str2Reg "7") (Str2Reg "8")) (RegexUnion (Str2Reg "9") (Str2Reg "aaa"))) (RegexConcat (RegexStar (RegexStar (Str2Reg "b"))) (RegexConcat (RegexStar (RegexPlus (Str2Reg "ccc"))) (RegexConcat (RegexUnion (RegexStar (Str2Reg "dd")) (RegexStar (Str2Reg "eee"))) (RegexConcat (RegexUnion (RegexPlus (Str2Reg "fff")) (RegexPlus (Str2Reg "ggg"))) (RegexStar (RegexUnion (Str2Reg "hh") (Str2Reg "iii"))))))))))))))
(assert (RegexIn var0 (RegexConcat (RegexUnion (RegexPlus (Str2Reg "0")) (RegexPlus (Str2Reg "111"))) (RegexConcat (RegexPlus (RegexUnion (Str2Reg "22") (Str2Reg "3"))) (RegexConcat (RegexStar (RegexStar (Str2Reg "444"))) (RegexConcat (RegexStar (RegexPlus (Str2Reg "555"))) (RegexConcat (RegexUnion (RegexStar (Str2Reg "666")) (RegexStar (Str2Reg "777"))) (RegexConcat (RegexStar (RegexPlus (Str2Reg "8"))) (RegexConcat (RegexPlus (RegexStar (Str2Reg "999"))) (RegexConcat (RegexStar (RegexPlus (Str2Reg "a"))) (RegexConcat (RegexStar (RegexPlus (Str2Reg "b"))) (RegexUnion (RegexPlus (Str2Reg "c")) (RegexPlus (Str2Reg "ddd"))))))))))))))
(assert (RegexIn var0 (RegexConcat (RegexUnion (RegexStar (Str2Reg "000")) (RegexStar (Str2Reg "11"))) (RegexConcat (RegexPlus (RegexStar (Str2Reg "2"))) (RegexConcat (RegexStar (RegexPlus (Str2Reg "333"))) (RegexConcat (RegexStar (RegexUnion (Str2Reg "444") (Str2Reg "5"))) (RegexConcat (RegexPlus (RegexUnion (Str2Reg "6") (Str2Reg "77"))) (RegexConcat (RegexPlus (RegexPlus (Str2Reg "88"))) (RegexConcat (RegexUnion (RegexUnion (Str2Reg "999") (Str2Reg "a")) (RegexUnion (Str2Reg "bbb") (Str2Reg "c"))) (RegexConcat (RegexStar (RegexStar (Str2Reg "d"))) (RegexConcat (RegexUnion (RegexStar (Str2Reg "eee")) (RegexStar (Str2Reg "fff"))) (RegexUnion (RegexPlus (Str2Reg "gg")) (RegexPlus (Str2Reg "h"))))))))))))))
(assert (RegexIn var0 (RegexConcat (RegexPlus (RegexPlus (Str2Reg "000"))) (RegexConcat (RegexPlus (RegexStar (Str2Reg "111"))) (RegexConcat (RegexUnion (RegexPlus (Str2Reg "22")) (RegexPlus (Str2Reg "333"))) (RegexConcat (RegexStar (RegexUnion (Str2Reg "44") (Str2Reg "55"))) (RegexConcat (RegexPlus (RegexPlus (Str2Reg "66"))) (RegexConcat (RegexStar (RegexStar (Str2Reg "777"))) (RegexConcat (RegexStar (RegexPlus (Str2Reg "88"))) (RegexConcat (RegexStar (RegexUnion (Str2Reg "9") (Str2Reg "aaa"))) (RegexConcat (RegexUnion (RegexStar (Str2Reg "bbb")) (RegexStar (Str2Reg "c"))) (RegexPlus (RegexStar (Str2Reg "ddd"))))))))))))))
(assert (RegexIn var0 (RegexConcat (RegexPlus (RegexPlus (Str2Reg "000"))) (RegexConcat (RegexUnion (RegexUnion (Str2Reg "11") (Str2Reg "2")) (RegexUnion (Str2Reg "33") (Str2Reg "4"))) (RegexConcat (RegexUnion (RegexStar (Str2Reg "5")) (RegexStar (Str2Reg "666"))) (RegexConcat (RegexStar (RegexStar (Str2Reg "777"))) (RegexConcat (RegexUnion (RegexPlus (Str2Reg "888")) (RegexPlus (Str2Reg "999"))) (RegexConcat (RegexStar (RegexPlus (Str2Reg "a"))) (RegexConcat (RegexStar (RegexPlus (Str2Reg "b"))) (RegexConcat (RegexUnion (RegexPlus (Str2Reg "c")) (RegexPlus (Str2Reg "d"))) (RegexConcat (RegexStar (RegexUnion (Str2Reg "e") (Str2Reg "fff"))) (RegexPlus (RegexUnion (Str2Reg "gg") (Str2Reg "h"))))))))))))))
(assert (RegexIn var0 (RegexConcat (RegexStar (RegexUnion (Str2Reg "00") (Str2Reg "11"))) (RegexConcat (RegexPlus (RegexStar (Str2Reg "2"))) (RegexConcat (RegexStar (RegexPlus (Str2Reg "33"))) (RegexConcat (RegexStar (RegexPlus (Str2Reg "444"))) (RegexConcat (RegexUnion (RegexStar (Str2Reg "5")) (RegexStar (Str2Reg "666"))) (RegexConcat (RegexPlus (RegexStar (Str2Reg "777"))) (RegexConcat (RegexUnion (RegexStar (Str2Reg "88")) (RegexStar (Str2Reg "999"))) (RegexConcat (RegexPlus (RegexUnion (Str2Reg "aa") (Str2Reg "bbb"))) (RegexConcat (RegexPlus (RegexPlus (Str2Reg "c"))) (RegexStar (RegexPlus (Str2Reg "dd"))))))))))))))
(assert (RegexIn var0 (RegexConcat (RegexStar (RegexUnion (Str2Reg "0") (Str2Reg "111"))) (RegexConcat (RegexUnion (RegexStar (Str2Reg "222")) (RegexStar (Str2Reg "33"))) (RegexConcat (RegexUnion (RegexStar (Str2Reg "44")) (RegexStar (Str2Reg "555"))) (RegexConcat (RegexUnion (RegexStar (Str2Reg "666")) (RegexStar (Str2Reg "7"))) (RegexConcat (RegexPlus (RegexStar (Str2Reg "888"))) (RegexConcat (RegexPlus (RegexPlus (Str2Reg "9"))) (RegexConcat (RegexUnion (RegexUnion (Str2Reg "aa") (Str2Reg "b")) (RegexUnion (Str2Reg "cc") (Str2Reg "d"))) (RegexConcat (RegexUnion (RegexPlus (Str2Reg "e")) (RegexPlus (Str2Reg "fff"))) (RegexConcat (RegexPlus (RegexStar (Str2Reg "g"))) (RegexPlus (RegexUnion (Str2Reg "h") (Str2Reg "iii"))))))))))))))
(assert (RegexIn var0 (RegexConcat (RegexStar (RegexPlus (Str2Reg "00"))) (RegexConcat (RegexUnion (RegexStar (Str2Reg "1")) (RegexStar (Str2Reg "222"))) (RegexConcat (RegexStar (RegexUnion (Str2Reg "33") (Str2Reg "444"))) (RegexConcat (RegexPlus (RegexStar (Str2Reg "5"))) (RegexConcat (RegexPlus (RegexStar (Str2Reg "66"))) (RegexConcat (RegexPlus (RegexUnion (Str2Reg "7") (Str2Reg "8"))) (RegexConcat (RegexPlus (RegexStar (Str2Reg "9"))) (RegexConcat (RegexStar (RegexStar (Str2Reg "aa"))) (RegexConcat (RegexUnion (RegexPlus (Str2Reg "bb")) (RegexPlus (Str2Reg "cc"))) (RegexPlus (RegexUnion (Str2Reg "ddd") (Str2Reg "ee"))))))))))))))
(assert (RegexIn var0 (RegexConcat (RegexPlus (RegexStar (Str2Reg "00"))) (RegexConcat (RegexStar (RegexStar (Str2Reg "11"))) (RegexConcat (RegexUnion (RegexUnion (Str2Reg "2") (Str2Reg "333")) (RegexUnion (Str2Reg "44") (Str2Reg "555"))) (RegexConcat (RegexStar (RegexStar (Str2Reg "6"))) (RegexConcat (RegexStar (RegexUnion (Str2Reg "777") (Str2Reg "8"))) (RegexConcat (RegexStar (RegexUnion (Str2Reg "9") (Str2Reg "aaa"))) (RegexConcat (RegexPlus (RegexStar (Str2Reg "bb"))) (RegexConcat (RegexUnion (RegexUnion (Str2Reg "c") (Str2Reg "dd")) (RegexUnion (Str2Reg "ee") (Str2Reg "fff"))) (RegexConcat (RegexStar (RegexStar (Str2Reg "ggg"))) (RegexStar (RegexStar (Str2Reg "hh"))))))))))))))
(assert (RegexIn var0 (RegexConcat (RegexStar (RegexPlus (Str2Reg "00"))) (RegexConcat (RegexStar (RegexUnion (Str2Reg "1") (Str2Reg "22"))) (RegexConcat (RegexStar (RegexStar (Str2Reg "333"))) (RegexConcat (RegexUnion (RegexUnion (Str2Reg "4") (Str2Reg "555")) (RegexUnion (Str2Reg "6") (Str2Reg "77"))) (RegexConcat (RegexPlus (RegexUnion (Str2Reg "888") (Str2Reg "99"))) (RegexConcat (RegexUnion (RegexUnion (Str2Reg "a") (Str2Reg "bb")) (RegexUnion (Str2Reg "ccc") (Str2Reg "dd"))) (RegexConcat (RegexUnion (RegexUnion (Str2Reg "e") (Str2Reg "f")) (RegexUnion (Str2Reg "ggg") (Str2Reg "hhh"))) (RegexConcat (RegexPlus (RegexStar (Str2Reg "i"))) (RegexConcat (RegexStar (RegexStar (Str2Reg "jj"))) (RegexUnion (RegexPlus (Str2Reg "k")) (RegexPlus (Str2Reg "lll"))))))))))))))
(assert (RegexIn var0 (RegexConcat (RegexUnion (RegexStar (Str2Reg "0")) (RegexStar (Str2Reg "111"))) (RegexConcat (RegexPlus (RegexUnion (Str2Reg "222") (Str2Reg "33"))) (RegexConcat (RegexUnion (RegexStar (Str2Reg "4")) (RegexStar (Str2Reg "5"))) (RegexConcat (RegexPlus (RegexStar (Str2Reg "66"))) (RegexConcat (RegexStar (RegexStar (Str2Reg "777"))) (RegexConcat (RegexStar (RegexPlus (Str2Reg "8"))) (RegexConcat (RegexPlus (RegexUnion (Str2Reg "9") (Str2Reg "aa"))) (RegexConcat (RegexPlus (RegexPlus (Str2Reg "bbb"))) (RegexConcat (RegexStar (RegexUnion (Str2Reg "ccc") (Str2Reg "dd"))) (RegexPlus (RegexPlus (Str2Reg "e"))))))))))))))
(assert (RegexIn var0 (RegexConcat (RegexStar (RegexPlus (Str2Reg "0"))) (RegexConcat (RegexPlus (RegexPlus (Str2Reg "11"))) (RegexConcat (RegexStar (RegexPlus (Str2Reg "2"))) (RegexConcat (RegexPlus (RegexPlus (Str2Reg "3"))) (RegexConcat (RegexUnion (RegexPlus (Str2Reg "444")) (RegexPlus (Str2Reg "55"))) (RegexConcat (RegexUnion (RegexUnion (Str2Reg "666") (Str2Reg "777")) (RegexUnion (Str2Reg "8") (Str2Reg "999"))) (RegexConcat (RegexUnion (RegexPlus (Str2Reg "aaa")) (RegexPlus (Str2Reg "b"))) (RegexConcat (RegexStar (RegexStar (Str2Reg "ccc"))) (RegexConcat (RegexUnion (RegexPlus (Str2Reg "dd")) (RegexPlus (Str2Reg "ee"))) (RegexPlus (RegexUnion (Str2Reg "ff") (Str2Reg "ggg"))))))))))))))
(assert (RegexIn var0 (RegexConcat (RegexPlus (RegexPlus (Str2Reg "0"))) (RegexConcat (RegexUnion (RegexStar (Str2Reg "1")) (RegexStar (Str2Reg "222"))) (RegexConcat (RegexUnion (RegexPlus (Str2Reg "33")) (RegexPlus (Str2Reg "444"))) (RegexConcat (RegexUnion (RegexPlus (Str2Reg "55")) (RegexPlus (Str2Reg "66"))) (RegexConcat (RegexStar (RegexStar (Str2Reg "77"))) (RegexConcat (RegexPlus (RegexUnion (Str2Reg "8") (Str2Reg "999"))) (RegexConcat (RegexPlus (RegexStar (Str2Reg "aaa"))) (RegexConcat (RegexPlus (RegexPlus (Str2Reg "bb"))) (RegexConcat (RegexPlus (RegexUnion (Str2Reg "c") (Str2Reg "d"))) (RegexStar (RegexStar (Str2Reg "eee"))))))))))))))
(assert (RegexIn var0 (RegexConcat (RegexUnion (RegexUnion (Str2Reg "000") (Str2Reg "111")) (RegexUnion (Str2Reg "2") (Str2Reg "33"))) (RegexConcat (RegexStar (RegexStar (Str2Reg "444"))) (RegexConcat (RegexPlus (RegexUnion (Str2Reg "55") (Str2Reg "666"))) (RegexConcat (RegexPlus (RegexStar (Str2Reg "77"))) (RegexConcat (RegexStar (RegexUnion (Str2Reg "888") (Str2Reg "999"))) (RegexConcat (RegexPlus (RegexStar (Str2Reg "aa"))) (RegexConcat (RegexUnion (RegexUnion (Str2Reg "bbb") (Str2Reg "c")) (RegexUnion (Str2Reg "d") (Str2Reg "ee"))) (RegexConcat (RegexUnion (RegexStar (Str2Reg "fff")) (RegexStar (Str2Reg "g"))) (RegexConcat (RegexUnion (RegexPlus (Str2Reg "hh")) (RegexPlus (Str2Reg "ii"))) (RegexStar (RegexUnion (Str2Reg "j") (Str2Reg "kkk"))))))))))))))
(assert (RegexIn var0 (RegexConcat (RegexPlus (RegexUnion (Str2Reg "000") (Str2Reg "11"))) (RegexConcat (RegexPlus (RegexStar (Str2Reg "2"))) (RegexConcat (RegexUnion (RegexUnion (Str2Reg "3") (Str2Reg "4")) (RegexUnion (Str2Reg "5") (Str2Reg "6"))) (RegexConcat (RegexPlus (RegexUnion (Str2Reg "777") (Str2Reg "88"))) (RegexConcat (RegexStar (RegexPlus (Str2Reg "99"))) (RegexConcat (RegexUnion (RegexUnion (Str2Reg "a") (Str2Reg "b")) (RegexUnion (Str2Reg "ccc") (Str2Reg "dd"))) (RegexConcat (RegexUnion (RegexPlus (Str2Reg "ee")) (RegexPlus (Str2Reg "f"))) (RegexConcat (RegexPlus (RegexStar (Str2Reg "gg"))) (RegexConcat (RegexUnion (RegexStar (Str2Reg "h")) (RegexStar (Str2Reg "i"))) (RegexStar (RegexStar (Str2Reg "j"))))))))))))))
(assert (RegexIn var0 (RegexConcat (RegexStar (RegexStar (Str2Reg "00"))) (RegexConcat (RegexPlus (RegexUnion (Str2Reg "111") (Str2Reg "2"))) (RegexConcat (RegexPlus (RegexUnion (Str2Reg "333") (Str2Reg "444"))) (RegexConcat (RegexUnion (RegexUnion (Str2Reg "555") (Str2Reg "66")) (RegexUnion (Str2Reg "7") (Str2Reg "88"))) (RegexConcat (RegexUnion (RegexStar (Str2Reg "999")) (RegexStar (Str2Reg "a"))) (RegexConcat (RegexUnion (RegexPlus (Str2Reg "bb")) (RegexPlus (Str2Reg "cc"))) (RegexConcat (RegexPlus (RegexPlus (Str2Reg "ddd"))) (RegexConcat (RegexUnion (RegexStar (Str2Reg "ee")) (RegexStar (Str2Reg "f"))) (RegexConcat (RegexUnion (RegexStar (Str2Reg "gg")) (RegexStar (Str2Reg "hhh"))) (RegexStar (RegexStar (Str2Reg "ii"))))))))))))))
(assert (RegexIn var0 (RegexConcat (RegexUnion (RegexStar (Str2Reg "000")) (RegexStar (Str2Reg "1"))) (RegexConcat (RegexPlus (RegexStar (Str2Reg "22"))) (RegexConcat (RegexUnion (RegexUnion (Str2Reg "3") (Str2Reg "4")) (RegexUnion (Str2Reg "555") (Str2Reg "666"))) (RegexConcat (RegexStar (RegexUnion (Str2Reg "77") (Str2Reg "88"))) (RegexConcat (RegexStar (RegexPlus (Str2Reg "999"))) (RegexConcat (RegexUnion (RegexPlus (Str2Reg "aa")) (RegexPlus (Str2Reg "bbb"))) (RegexConcat (RegexPlus (RegexPlus (Str2Reg "c"))) (RegexConcat (RegexStar (RegexUnion (Str2Reg "d") (Str2Reg "eee"))) (RegexConcat (RegexPlus (RegexStar (Str2Reg "f"))) (RegexUnion (RegexUnion (Str2Reg "gg") (Str2Reg "hh")) (RegexUnion (Str2Reg "iii") (Str2Reg "j"))))))))))))))
(check-sat)